NAME: cuum580.tsp
TYPE: TSP
COMMENT: User-generated TSP file
DIMENSION: 580
EDGE_WEIGHT_TYPE: EUC_2D
NODE_COORD_SECTION
1 461.0 580.0
2 101.0 135.0
3 225.0 57.0
4 122.0 420.0
5 63.0 549.0
6 191.0 129.0
7 110.0 14.0
8 579.0 364.0
9 350.0 61.0
10 272.0 311.0
11 174.0 430.0
12 352.0 146.0
13 57.0 540.0
14 571.0 567.0
15 139.0 438.0
16 429.0 501.0
17 439.0 93.0
18 205.0 372.0
19 381.0 518.0
20 351.0 281.0
21 538.0 54.0
22 24.0 542.0
23 428.0 185.0
24 329.0 401.0
25 498.0 533.0
26 132.0 258.0
27 466.0 515.0
28 402.0 152.0
29 511.0 272.0
30 95.0 419.0
31 189.0 260.0
32 323.0 153.0
33 201.0 355.0
34 157.0 15.0
35 364.0 438.0
36 559.0 267.0
37 276.0 523.0
38 206.0 122.0
39 210.0 292.0
40 385.0 530.0
41 290.0 116.0
42 174.0 292.0
43 22.0 511.0
44 312.0 436.0
45 25.0 327.0
46 57.0 218.0
47 97.0 520.0
48 530.0 551.0
49 441.0 467.0
50 438.0 306.0
51 214.0 65.0
52 519.0 192.0
53 273.0 290.0
54 312.0 369.0
55 260.0 518.0
56 14.0 315.0
57 95.0 193.0
58 188.0 335.0
59 571.0 348.0
60 34.0 502.0
61 172.0 253.0
62 549.0 123.0
63 270.0 221.0
64 236.0 300.0
65 542.0 5.0
66 525.0 310.0
67 229.0 151.0
68 285.0 174.0
69 313.0 512.0
70 531.0 119.0
71 99.0 44.0
72 68.0 113.0
73 331.0 182.0
74 111.0 410.0
75 314.0 267.0
76 382.0 471.0
77 97.0 34.0
78 131.0 268.0
79 331.0 187.0
80 359.0 378.0
81 333.0 445.0
82 541.0 107.0
83 354.0 125.0
84 122.0 369.0
85 532.0 172.0
86 233.0 290.0
87 415.0 395.0
88 404.0 429.0
89 301.0 93.0
90 182.0 259.0
91 449.0 497.0
92 328.0 164.0
93 420.0 525.0
94 313.0 451.0
95 556.0 220.0
96 262.0 116.0
97 84.0 102.0
98 560.0 73.0
99 178.0 361.0
100 295.0 516.0
101 395.0 52.0
102 121.0 527.0
103 359.0 4.0
104 97.0 210.0
105 108.0 579.0
106 558.0 276.0
107 177.0 518.0
108 422.0 41.0
109 471.0 187.0
110 512.0 172.0
111 549.0 426.0
112 296.0 68.0
113 491.0 319.0
114 490.0 107.0
115 99.0 273.0
116 504.0 426.0
117 278.0 297.0
118 535.0 453.0
119 202.0 179.0
120 507.0 366.0
121 8.0 404.0
122 422.0 203.0
123 395.0 305.0
124 6.0 194.0
125 79.0 482.0
126 278.0 158.0
127 507.0 377.0
128 335.0 216.0
129 251.0 240.0
130 523.0 284.0
131 291.0 28.0
132 307.0 466.0
133 524.0 405.0
134 517.0 176.0
135 514.0 103.0
136 148.0 176.0
137 539.0 430.0
138 163.0 417.0
139 290.0 463.0
140 457.0 1.0
141 345.0 391.0
142 273.0 26.0
143 252.0 524.0
144 64.0 222.0
145 314.0 217.0
146 542.0 103.0
147 165.0 415.0
148 127.0 84.0
149 197.0 12.0
150 278.0 546.0
151 562.0 274.0
152 20.0 252.0
153 263.0 253.0
154 382.0 562.0
155 479.0 185.0
156 579.0 344.0
157 546.0 56.0
158 195.0 347.0
159 314.0 79.0
160 540.0 165.0
161 566.0 297.0
162 55.0 410.0
163 453.0 265.0
164 124.0 519.0
165 422.0 68.0
166 414.0 196.0
167 350.0 517.0
168 207.0 439.0
169 553.0 193.0
170 461.0 555.0
171 128.0 568.0
172 427.0 333.0
173 265.0 315.0
174 276.0 124.0
175 381.0 289.0
176 44.0 458.0
177 159.0 118.0
178 153.0 311.0
179 556.0 315.0
180 552.0 526.0
181 274.0 22.0
182 525.0 323.0
183 534.0 432.0
184 206.0 89.0
185 269.0 340.0
186 220.0 537.0
187 561.0 132.0
188 45.0 57.0
189 558.0 318.0
190 195.0 193.0
191 145.0 502.0
192 351.0 548.0
193 254.0 358.0
194 356.0 417.0
195 149.0 241.0
196 426.0 384.0
197 245.0 204.0
198 556.0 408.0
199 164.0 576.0
200 90.0 61.0
201 43.0 384.0
202 464.0 313.0
203 26.0 191.0
204 90.0 117.0
205 90.0 397.0
206 51.0 312.0
207 361.0 302.0
208 312.0 111.0
209 492.0 265.0
210 322.0 91.0
211 55.0 497.0
212 528.0 130.0
213 16.0 329.0
214 19.0 462.0
215 512.0 158.0
216 315.0 114.0
217 436.0 108.0
218 427.0 338.0
219 564.0 84.0
220 332.0 364.0
221 261.0 47.0
222 448.0 557.0
223 308.0 559.0
224 71.0 53.0
225 299.0 287.0
226 336.0 161.0
227 300.0 1.0
228 143.0 163.0
229 442.0 549.0
230 417.0 15.0
231 549.0 157.0
232 428.0 161.0
233 65.0 213.0
234 186.0 165.0
235 549.0 434.0
236 141.0 152.0
237 144.0 260.0
238 437.0 70.0
239 527.0 44.0
240 509.0 573.0
241 424.0 409.0
242 563.0 500.0
243 287.0 118.0
244 438.0 322.0
245 372.0 427.0
246 196.0 227.0
247 360.0 574.0
248 202.0 43.0
249 115.0 470.0
250 488.0 156.0
251 27.0 250.0
252 27.0 63.0
253 116.0 336.0
254 341.0 147.0
255 85.0 546.0
256 518.0 535.0
257 207.0 368.0
258 55.0 241.0
259 153.0 126.0
260 273.0 565.0
261 359.0 297.0
262 279.0 284.0
263 396.0 28.0
264 80.0 61.0
265 172.0 182.0
266 412.0 27.0
267 182.0 79.0
268 491.0 502.0
269 458.0 391.0
270 317.0 109.0
271 426.0 572.0
272 564.0 276.0
273 22.0 499.0
274 21.0 3.0
275 378.0 291.0
276 399.0 500.0
277 230.0 174.0
278 155.0 224.0
279 216.0 310.0
280 514.0 290.0
281 227.0 557.0
282 139.0 351.0
283 85.0 10.0
284 410.0 317.0
285 46.0 305.0
286 551.0 53.0
287 21.0 459.0
288 229.0 247.0
289 44.0 316.0
290 319.0 506.0
291 292.0 281.0
292 141.0 182.0
293 181.0 326.0
294 156.0 297.0
295 416.0 491.0
296 325.0 466.0
297 433.0 36.0
298 150.0 174.0
299 37.0 457.0
300 297.0 200.0
301 268.0 406.0
302 395.0 56.0
303 337.0 354.0
304 309.0 397.0
305 552.0 497.0
306 381.0 113.0
307 332.0 116.0
308 266.0 244.0
309 402.0 553.0
310 396.0 270.0
311 520.0 512.0
312 141.0 318.0
313 322.0 376.0
314 436.0 346.0
315 357.0 566.0
316 435.0 94.0
317 284.0 412.0
318 140.0 198.0
319 25.0 331.0
320 74.0 89.0
321 49.0 57.0
322 474.0 139.0
323 577.0 376.0
324 165.0 406.0
325 483.0 432.0
326 550.0 328.0
327 209.0 147.0
328 146.0 538.0
329 368.0 466.0
330 544.0 365.0
331 372.0 465.0
332 224.0 133.0
333 90.0 410.0
334 39.0 10.0
335 145.0 146.0
336 291.0 488.0
337 327.0 441.0
338 167.0 75.0
339 163.0 118.0
340 306.0 171.0
341 481.0 573.0
342 484.0 332.0
343 567.0 245.0
344 196.0 416.0
345 374.0 387.0
346 100.0 264.0
347 145.0 432.0
348 549.0 477.0
349 29.0 220.0
350 505.0 396.0
351 12.0 87.0
352 388.0 375.0
353 281.0 54.0
354 26.0 362.0
355 88.0 509.0
356 169.0 321.0
357 71.0 580.0
358 385.0 16.0
359 235.0 55.0
360 80.0 208.0
361 150.0 431.0
362 221.0 152.0
363 482.0 231.0
364 425.0 275.0
365 558.0 253.0
366 291.0 318.0
367 460.0 327.0
368 477.0 346.0
369 350.0 323.0
370 502.0 325.0
371 5.0 487.0
372 256.0 52.0
373 205.0 20.0
374 57.0 530.0
375 493.0 472.0
376 215.0 217.0
377 412.0 152.0
378 114.0 320.0
379 371.0 165.0
380 216.0 364.0
381 127.0 209.0
382 360.0 487.0
383 281.0 108.0
384 270.0 15.0
385 134.0 560.0
386 134.0 465.0
387 150.0 176.0
388 534.0 435.0
389 523.0 190.0
390 151.0 418.0
391 59.0 9.0
392 201.0 528.0
393 442.0 269.0
394 322.0 472.0
395 235.0 304.0
396 264.0 532.0
397 323.0 131.0
398 219.0 564.0
399 69.0 274.0
400 464.0 364.0
401 440.0 336.0
402 420.0 341.0
403 398.0 329.0
404 205.0 181.0
405 35.0 221.0
406 352.0 571.0
407 437.0 26.0
408 524.0 384.0
409 520.0 362.0
410 197.0 467.0
411 320.0 39.0
412 151.0 211.0
413 236.0 76.0
414 497.0 129.0
415 333.0 520.0
416 415.0 421.0
417 179.0 446.0
418 114.0 283.0
419 259.0 229.0
420 290.0 532.0
421 135.0 97.0
422 184.0 470.0
423 65.0 104.0
424 120.0 299.0
425 299.0 107.0
426 541.0 259.0
427 348.0 71.0
428 277.0 3.0
429 220.0 244.0
430 465.0 369.0
431 322.0 522.0
432 13.0 160.0
433 88.0 218.0
434 572.0 10.0
435 221.0 259.0
436 110.0 295.0
437 52.0 16.0
438 61.0 399.0
439 301.0 469.0
440 232.0 433.0
441 403.0 25.0
442 242.0 176.0
443 138.0 245.0
444 447.0 347.0
445 19.0 177.0
446 297.0 350.0
447 519.0 304.0
448 523.0 304.0
449 95.0 59.0
450 283.0 394.0
451 529.0 570.0
452 427.0 44.0
453 506.0 368.0
454 258.0 166.0
455 56.0 268.0
456 285.0 334.0
457 277.0 3.0
458 495.0 359.0
459 531.0 89.0
460 448.0 412.0
461 493.0 492.0
462 528.0 19.0
463 178.0 534.0
464 296.0 561.0
465 504.0 205.0
466 82.0 530.0
467 265.0 333.0
468 426.0 122.0
469 439.0 247.0
470 528.0 342.0
471 49.0 364.0
472 384.0 291.0
473 256.0 317.0
474 218.0 219.0
475 504.0 361.0
476 382.0 140.0
477 57.0 156.0
478 312.0 464.0
479 167.0 502.0
480 26.0 159.0
481 379.0 433.0
482 166.0 5.0
483 63.0 408.0
484 482.0 5.0
485 158.0 301.0
486 492.0 523.0
487 342.0 327.0
488 557.0 403.0
489 20.0 230.0
490 425.0 222.0
491 69.0 35.0
492 296.0 298.0
493 254.0 563.0
494 509.0 160.0
495 76.0 563.0
496 342.0 219.0
497 502.0 358.0
498 466.0 205.0
499 184.0 373.0
500 301.0 267.0
501 119.0 325.0
502 493.0 516.0
503 214.0 506.0
504 570.0 516.0
505 372.0 203.0
506 123.0 51.0
507 495.0 490.0
508 11.0 367.0
509 89.0 215.0
510 153.0 76.0
511 167.0 307.0
512 8.0 281.0
513 414.0 238.0
514 530.0 347.0
515 19.0 422.0
516 435.0 514.0
517 275.0 455.0
518 129.0 183.0
519 562.0 572.0
520 151.0 255.0
521 129.0 36.0
522 471.0 240.0
523 55.0 564.0
524 356.0 554.0
525 5.0 267.0
526 238.0 506.0
527 213.0 458.0
528 65.0 427.0
529 204.0 145.0
530 309.0 148.0
531 225.0 208.0
532 488.0 395.0
533 151.0 113.0
534 115.0 39.0
535 416.0 364.0
536 220.0 464.0
537 276.0 209.0
538 264.0 486.0
539 16.0 324.0
540 256.0 519.0
541 495.0 272.0
542 116.0 481.0
543 365.0 264.0
544 275.0 428.0
545 537.0 466.0
546 267.0 426.0
547 110.0 388.0
548 580.0 319.0
549 389.0 163.0
550 86.0 42.0
551 398.0 293.0
552 442.0 427.0
553 512.0 403.0
554 247.0 390.0
555 451.0 8.0
556 120.0 2.0
557 359.0 514.0
558 510.0 81.0
559 449.0 40.0
560 341.0 225.0
561 118.0 94.0
562 124.0 466.0
563 375.0 300.0
564 509.0 341.0
565 120.0 126.0
566 153.0 329.0
567 285.0 259.0
568 263.0 149.0
569 578.0 71.0
570 305.0 236.0
571 24.0 493.0
572 207.0 283.0
573 311.0 463.0
574 408.0 443.0
575 353.0 540.0
576 409.0 256.0
577 205.0 197.0
578 12.0 261.0
579 552.0 469.0
580 241.0 213.0
EOF





